4 10 200 1
0 200
  0 70.00 70.00 0.00 0.00 0 0 0 634
  1 107.00 77.00 10.00 34.00 1 1 1 37 47
  2 109.00 139.00 10.00 8.00 1 1 1 123 133
  3 120.00 22.00 10.00 39.00 1 1 1 124 134
  4 48.00 47.00 10.00 19.00 1 1 1 31 41
  5 116.00 22.00 10.00 32.00 1 1 1 148 158
  6 12.00 138.00 10.00 14.00 1 1 1 285 295
  7 86.00 40.00 10.00 22.00 1 1 1 34 44
  8 121.00 124.00 10.00 21.00 1 1 1 160 170
  9 61.00 57.00 10.00 35.00 1 1 1 385 395
  10 40.00 113.00 10.00 23.00 1 1 1 487 497
  11 129.00 24.00 10.00 18.00 1 1 1 345 355
  12 12.00 84.00 10.00 16.00 1 1 1 209 219
  13 44.00 116.00 10.00 27.00 1 1 1 63 73
  14 102.00 52.00 10.00 15.00 1 1 1 169 179
  15 41.00 36.00 10.00 13.00 1 1 1 61 71
  16 132.00 133.00 10.00 24.00 1 1 1 150 160
  17 104.00 139.00 10.00 29.00 1 1 1 346 356
  18 104.00 54.00 10.00 13.00 1 1 1 63 73
  19 22.00 104.00 10.00 11.00 1 1 1 241 251
  20 46.00 133.00 10.00 7.00 1 1 1 86 96
  21 138.00 78.00 10.00 43.00 1 1 1 212 222
  22 16.00 92.00 10.00 10.00 1 1 1 369 379
  23 18.00 104.00 10.00 18.00 1 1 1 347 357
  24 66.00 82.00 10.00 27.00 1 1 1 511 521
  25 107.00 25.00 10.00 13.00 1 1 1 284 294
  26 139.00 73.00 10.00 10.00 1 1 1 97 107
  27 101.00 0.00 10.00 9.00 1 1 1 508 518
  28 90.00 14.00 10.00 31.00 1 1 1 474 484
  29 20.00 69.00 10.00 13.00 1 1 1 388 398
  30 64.00 132.00 10.00 8.00 1 1 1 67 77
  31 115.00 82.00 10.00 30.00 1 1 1 277 287
  32 54.00 106.00 10.00 9.00 1 1 1 304 314
  33 30.00 21.00 10.00 12.00 1 1 1 332 342
  34 63.00 129.00 10.00 7.00 1 1 1 216 226
  35 82.00 100.00 10.00 18.00 1 1 1 114 124
  36 108.00 30.00 10.00 18.00 1 1 1 106 116
  37 37.00 73.00 10.00 33.00 1 1 1 346 356
  38 50.00 112.00 10.00 18.00 1 1 1 242 252
  39 47.00 83.00 10.00 1.00 1 1 1 328 338
  40 92.00 138.00 10.00 12.00 1 1 1 412 422
  41 81.00 36.00 10.00 17.00 1 1 1 72 82
  42 115.00 124.00 10.00 11.00 1 1 1 421 431
  43 13.00 48.00 10.00 15.00 1 1 1 430 440
  44 113.00 35.00 10.00 9.00 1 1 1 60 70
  45 60.00 84.00 10.00 23.00 1 1 1 492 502
  46 44.00 58.00 10.00 30.00 1 1 1 28 38
  47 8.00 87.00 10.00 17.00 1 1 1 411 421
  48 116.00 105.00 10.00 23.00 1 1 1 154 164
  49 117.00 4.00 10.00 9.00 1 1 1 428 438
  50 140.00 42.00 10.00 13.00 1 1 1 111 121
  51 139.00 68.00 10.00 25.00 1 1 1 88 98
  52 58.00 95.00 10.00 35.00 1 1 1 495 505
  53 103.00 119.00 10.00 18.00 1 1 1 344 354
  54 32.00 52.00 10.00 32.00 1 1 1 161 171
  55 89.00 39.00 10.00 23.00 1 1 1 36 46
  56 54.00 41.00 10.00 9.00 1 1 1 291 301
  57 39.00 100.00 10.00 31.00 1 1 1 76 86
  58 5.00 99.00 10.00 24.00 1 1 1 334 344
  59 67.00 96.00 10.00 26.00 1 1 1 502 512
  60 73.00 96.00 10.00 9.00 1 1 1 176 186
  61 112.00 13.00 10.00 27.00 1 1 1 535 545
  62 55.00 127.00 10.00 17.00 1 1 1 268 278
  63 103.00 44.00 10.00 12.00 1 1 1 42 52
  64 97.00 12.00 10.00 10.00 1 1 1 216 226
  65 16.00 62.00 10.00 15.00 1 1 1 406 416
  66 140.00 36.00 10.00 1.00 1 1 1 186 196
  67 90.00 44.00 10.00 6.00 1 1 1 62 72
  68 113.00 32.00 10.00 36.00 1 1 1 154 164
  69 104.00 73.00 10.00 17.00 1 1 1 259 269
  70 36.00 38.00 10.00 5.00 1 1 1 448 458
  71 15.00 4.00 10.00 23.00 1 1 1 111 121
  72 54.00 33.00 10.00 20.00 1 1 1 40 50
  73 70.00 94.00 10.00 32.00 1 1 1 24 34
  74 35.00 90.00 10.00 20.00 1 1 1 456 466
  75 88.00 29.00 10.00 33.00 1 1 1 570 580
  76 109.00 131.00 10.00 16.00 1 1 1 236 246
  77 10.00 111.00 10.00 21.00 1 1 1 503 513
  78 138.00 105.00 10.00 24.00 1 1 1 413 423
  79 113.00 45.00 10.00 4.00 1 1 1 309 319
  80 92.00 22.00 10.00 18.00 1 1 1 200 210
  81 85.00 75.00 10.00 37.00 1 1 1 21 31
  82 10.00 86.00 10.00 14.00 1 1 1 421 431
  83 51.00 92.00 10.00 9.00 1 1 1 458 468
  84 46.00 112.00 10.00 10.00 1 1 1 296 306
  85 12.00 48.00 10.00 4.00 1 1 1 68 78
  86 137.00 7.00 10.00 40.00 1 1 1 166 176
  87 79.00 80.00 10.00 4.00 1 1 1 13 23
  88 69.00 116.00 10.00 26.00 1 1 1 354 364
  89 28.00 62.00 10.00 23.00 1 1 1 206 216
  90 50.00 106.00 10.00 25.00 1 1 1 330 340
  91 83.00 38.00 10.00 22.00 1 1 1 486 496
  92 120.00 102.00 10.00 18.00 1 1 1 107 117
  93 65.00 0.00 10.00 20.00 1 1 1 84 94
  94 4.00 71.00 10.00 19.00 1 1 1 170 180
  95 19.00 120.00 10.00 16.00 1 1 1 271 281
  96 18.00 70.00 10.00 26.00 1 1 1 401 411
  97 58.00 80.00 10.00 18.00 1 1 1 470 480
  98 49.00 140.00 10.00 3.00 1 1 1 244 254
  99 69.00 115.00 10.00 20.00 1 1 1 225 235
  100 36.00 124.00 10.00 34.00 1 1 1 244 254
  101 84.00 88.00 10.00 16.00 1 1 1 366 376
  102 17.00 138.00 10.00 8.00 1 1 1 443 453
  103 103.00 82.00 10.00 27.00 1 1 1 336 346
  104 38.00 122.00 10.00 13.00 1 1 1 244 254
  105 70.00 83.00 10.00 23.00 1 1 1 495 505
  106 29.00 60.00 10.00 14.00 1 1 1 42 52
  107 61.00 34.00 10.00 7.00 1 1 1 483 493
  108 54.00 78.00 10.00 11.00 1 1 1 560 570
  109 83.00 12.00 10.00 29.00 1 1 1 240 250
  110 34.00 72.00 10.00 21.00 1 1 1 559 569
  111 80.00 103.00 10.00 15.00 1 1 1 382 392
  112 78.00 111.00 10.00 22.00 1 1 1 41 51
  113 116.00 83.00 10.00 30.00 1 1 1 189 199
  114 29.00 94.00 10.00 1.00 1 1 1 287 297
  115 137.00 137.00 10.00 27.00 1 1 1 110 120
  116 110.00 28.00 10.00 20.00 1 1 1 315 325
  117 116.00 13.00 10.00 5.00 1 1 1 73 83
  118 59.00 115.00 10.00 26.00 1 1 1 324 334
  119 71.00 70.00 10.00 9.00 1 1 1 490 500
  120 120.00 60.00 10.00 18.00 1 1 1 64 74
  121 85.00 111.00 10.00 25.00 1 1 1 263 273
  122 121.00 123.00 10.00 9.00 1 1 1 267 277
  123 137.00 84.00 10.00 41.00 1 1 1 114 124
  124 103.00 86.00 10.00 19.00 1 1 1 268 278
  125 30.00 57.00 10.00 20.00 1 1 1 240 250
  126 139.00 72.00 10.00 23.00 1 1 1 347 357
  127 2.00 106.00 10.00 16.00 1 1 1 397 407
  128 64.00 138.00 10.00 15.00 1 1 1 450 460
  129 23.00 39.00 10.00 20.00 1 1 1 362 372
  130 126.00 23.00 10.00 13.00 1 1 1 273 283
  131 138.00 24.00 10.00 12.00 1 1 1 190 200
  132 78.00 63.00 10.00 19.00 1 1 1 10 20
  133 98.00 4.00 10.00 20.00 1 1 1 188 198
  134 103.00 77.00 10.00 17.00 1 1 1 301 311
  135 58.00 11.00 10.00 9.00 1 1 1 137 147
  136 26.00 130.00 10.00 20.00 1 1 1 278 288
  137 104.00 32.00 10.00 18.00 1 1 1 145 155
  138 55.00 102.00 10.00 4.00 1 1 1 325 335
  139 137.00 101.00 10.00 12.00 1 1 1 179 189
  140 65.00 80.00 10.00 20.00 1 1 1 11 21
  141 26.00 50.00 10.00 7.00 1 1 1 397 407
  142 56.00 139.00 10.00 18.00 1 1 1 320 330
  143 119.00 73.00 10.00 15.00 1 1 1 127 137
  144 9.00 19.00 10.00 10.00 1 1 1 383 393
  145 82.00 103.00 10.00 15.00 1 1 1 45 55
  146 107.00 102.00 10.00 12.00 1 1 1 229 239
  147 60.00 23.00 10.00 16.00 1 1 1 64 74
  148 123.00 84.00 10.00 13.00 1 1 1 426 436
  149 79.00 72.00 10.00 22.00 1 1 1 9 19
  150 99.00 34.00 10.00 9.00 1 1 1 86 96
  151 27.00 46.00 10.00 35.00 1 1 1 219 229
  152 64.00 115.00 10.00 15.00 1 1 1 145 155
  153 32.00 6.00 10.00 11.00 1 1 1 105 115
  154 86.00 80.00 10.00 21.00 1 1 1 384 394
  155 81.00 57.00 10.00 8.00 1 1 1 17 27
  156 135.00 65.00 10.00 3.00 1 1 1 349 359
  157 66.00 40.00 10.00 20.00 1 1 1 30 40
  158 120.00 47.00 10.00 18.00 1 1 1 55 65
  159 37.00 125.00 10.00 10.00 1 1 1 353 363
  160 120.00 14.00 10.00 20.00 1 1 1 269 279
  161 114.00 109.00 10.00 16.00 1 1 1 87 97
  162 137.00 127.00 10.00 28.00 1 1 1 206 216
  163 37.00 138.00 10.00 5.00 1 1 1 220 230
  164 36.00 54.00 10.00 15.00 1 1 1 382 392
  165 109.00 78.00 10.00 21.00 1 1 1 248 258
  166 34.00 20.00 10.00 15.00 1 1 1 161 171
  167 39.00 13.00 10.00 20.00 1 1 1 386 396
  168 137.00 96.00 10.00 9.00 1 1 1 71 81
  169 110.00 99.00 10.00 21.00 1 1 1 313 323
  170 136.00 123.00 10.00 31.00 1 1 1 329 339
  171 133.00 130.00 10.00 13.00 1 1 1 232 242
  172 120.00 52.00 10.00 20.00 1 1 1 384 394
  173 33.00 117.00 10.00 20.00 1 1 1 104 114
  174 37.00 79.00 10.00 5.00 1 1 1 438 448
  175 60.00 54.00 10.00 3.00 1 1 1 249 259
  176 125.00 68.00 10.00 20.00 1 1 1 202 212
  177 13.00 129.00 10.00 25.00 1 1 1 361 371
  178 20.00 106.00 10.00 24.00 1 1 1 285 295
  179 15.00 9.00 10.00 2.00 1 1 1 420 430
  180 106.00 10.00 10.00 13.00 1 1 1 309 319
  181 100.00 99.00 10.00 17.00 1 1 1 309 319
  182 89.00 24.00 10.00 15.00 1 1 1 311 321
  183 67.00 120.00 10.00 5.00 1 1 1 369 379
  184 42.00 29.00 10.00 12.00 1 1 1 70 80
  185 117.00 92.00 10.00 25.00 1 1 1 293 303
  186 15.00 18.00 10.00 10.00 1 1 1 410 420
  187 139.00 110.00 10.00 19.00 1 1 1 201 211
  188 44.00 36.00 10.00 9.00 1 1 1 58 68
  189 8.00 138.00 10.00 10.00 1 1 1 301 311
  190 33.00 0.00 10.00 20.00 1 1 1 492 502
  191 4.00 44.00 10.00 24.00 1 1 1 426 436
  192 97.00 115.00 10.00 25.00 1 1 1 378 388
  193 23.00 19.00 10.00 16.00 1 1 1 182 192
  194 56.00 129.00 10.00 21.00 1 1 1 297 307
  195 105.00 2.00 10.00 1.00 1 1 1 234 244
  196 66.00 91.00 10.00 16.00 1 1 1 21 31
  197 93.00 61.00 10.00 10.00 1 1 1 531 541
  198 27.00 104.00 10.00 1.00 1 1 1 512 522
  199 69.00 6.00 10.00 8.00 1 1 1 93 103
  200 95.00 135.00 10.00 27.00 1 1 1 411 421
